NAME complete3
OBJSENSE
 MIN
ROWS
 N  x9
 E  c_e_x10_
 E  c_e_x11_
 E  c_e_x12_
 E  c_e_x13_
 L  c_u_x14_
 L  c_u_x15_
 L  c_u_x16_
 L  c_u_x17_
 L  c_u_x18_
 L  c_u_x19_
 L  c_u_x20_
 L  c_u_x21_
 L  c_u_x22_
 L  c_u_x23_
 L  c_u_x24_
 L  c_u_x25_
 L  c_u_x26_
 L  c_u_x27_
 L  c_u_x28_
COLUMNS
     x1 c_e_x10_ 1
     x1 c_u_x20_ 1
     x1 c_u_x21_ 1
     x1 c_u_x22_ 1
     x1 c_u_x23_ 1
     x1 c_u_x24_ 1
     x1 c_u_x25_ 1
     x2 c_u_x14_ 1
     x2 c_u_x16_ 1
     x2 c_u_x20_ -1
     x2 c_u_x21_ -1
     x2 c_u_x22_ -1
     x2 c_u_x26_ 1
     x3 c_u_x15_ 1
     x3 c_u_x18_ 1
     x3 c_u_x20_ -1
     x3 c_u_x23_ -1
     x3 c_u_x24_ -1
     x3 c_u_x27_ 1
     x4 c_u_x17_ 1
     x4 c_u_x19_ 1
     x4 c_u_x21_ -1
     x4 c_u_x23_ -1
     x4 c_u_x25_ -1
     x4 c_u_x28_ 1
     x5 c_e_x11_ 1
     x5 c_u_x14_ -1
     x5 c_u_x15_ -1
     x5 c_u_x20_ 1
     x5 c_u_x25_ -1
     x5 c_u_x26_ -1
     x5 c_u_x27_ -1
     x6 c_e_x12_ 1
     x6 c_u_x16_ -1
     x6 c_u_x17_ -1
     x6 c_u_x21_ 1
     x6 c_u_x24_ -1
     x6 c_u_x26_ -1
     x6 c_u_x28_ -1
     x7 c_e_x13_ 1
     x7 c_u_x18_ -1
     x7 c_u_x19_ -1
     x7 c_u_x22_ -1
     x7 c_u_x23_ 1
     x7 c_u_x27_ -1
     x7 c_u_x28_ -1
     x8 x9 -1
     x8 c_e_x11_ -1
     x8 c_e_x12_ -1
     x8 c_e_x13_ -1
     x8 c_u_x22_ 1
     x8 c_u_x24_ 1
     x8 c_u_x25_ 1
     x8 c_u_x26_ 1
     x8 c_u_x27_ 1
     x8 c_u_x28_ 1
RHS
     RHS c_e_x10_ 0
     RHS c_e_x11_ 0
     RHS c_e_x12_ 0
     RHS c_e_x13_ 0
     RHS c_u_x14_ 0
     RHS c_u_x15_ 0
     RHS c_u_x16_ 0
     RHS c_u_x17_ 0
     RHS c_u_x18_ 0
     RHS c_u_x19_ 0
     RHS c_u_x20_ 0
     RHS c_u_x21_ 0
     RHS c_u_x22_ 0
     RHS c_u_x23_ 0
     RHS c_u_x24_ 0
     RHS c_u_x25_ 0
     RHS c_u_x26_ 0
     RHS c_u_x27_ 0
     RHS c_u_x28_ 0
BOUNDS
 LO BOUND x1 0
 LO BOUND x2 0
 UP BOUND x2 1
 LO BOUND x3 0
 UP BOUND x3 1
 LO BOUND x4 0
 UP BOUND x4 1
 LO BOUND x5 0
 LO BOUND x6 0
 LO BOUND x7 0
 LO BOUND x8 0
ENDATA
